output ([(((("\n"++problem_name)++"\n")++"L:")++show(L))++"\n"]++[if problem[i,j]==0 then "*" else show(letters[fix(L[problem[i,j]])]) endif++if j==cols then "\n" else "" endif | i in 1..rows, j in 1..cols, ])++["\n"];
int: rows = 15;
int: cols = 15;
array [1..rows,1..cols] of int: problem = [|1,2,3,4,0,5,6,7,8,9,0,10,11,12,13|14,15,16,17,0,18,19,20,21,22,0,23,24,25,26|27,28,29,30,31,32,33,34,35,36,0,37,38,39,40|41,42,43,44,45,46,47,48,49,50,0,51,52,53,54|0,0,0,0,55,56,57,58,0,59,60,61,62,63,64|65,66,67,68,69,0,0,70,71,72,73,74,0,0,0|75,76,77,78,0,79,80,81,82,83,84,85,86,87,88|89,90,91,92,93,94,95,0,96,97,98,99,100,101,102|103,104,105,106,107,108,109,110,111,112,0,113,114,115,116|0,0,0,117,118,119,120,121,0,0,122,123,124,125,126|127,128,129,130,131,132,0,133,134,135,136,0,0,0,0|137,138,139,140,0,141,142,143,144,145,146,147,148,149,150|151,152,153,154,0,155,156,157,158,159,160,161,162,163,164|165,166,167,168,0,169,170,171,172,173,0,174,175,176,177|178,179,180,181,0,182,183,184,185,186,0,187,188,189,190|];
int: num_letters = 26;
array [1..num_letters] of string: letters = ["a","b","c","d","e","f","g","h","i","j","k","l","m","n","o","p","q","r","s","t","u","v","w","x","y","z"];
int: N = 190;
array [0..N] of int: L;
string: problem_name = "15.10, 15 x 15";
